Route #1: 1 29 16 8 21 54 13 49 57 15 6 14
Route #2: 1 53 37 17 38 23 45 3 39
Route #3: 1 20 19 31 2 10 55 4 42 22 32 61 35
Route #4: 1 52 11 30 62 33 7 41
Route #5: 1 47 46 48 25 43
Route #6: 1 9 44 58 51 18 59 27 56
Route #7: 1 28 40 24 5 50 36 26 12
Route #8: 1 60 34
cost 1554
